(set-info :smt-lib-version 2.6)
(set-logic QF_SLIA)
(set-info :source |
Generated by: Joel Day, Thorsten Ehlers, Mitja Kulczynski, Federico Mora, Florin Manea, Dirk Nowotka, Danny Poulsen, Zhengyang Lu
Application: Test WOORPJE
Target solver: WOORPJE
Publications: Day, J. D., Ehlers, T., Kulczynski, M., Manea, F., Nowotka, D., & Poulsen, D. B. (2019). On solving word equations using SAT. In RP 2019
Description: Enriches a system of 30 word equations by suitable linear constraints
|)
(set-info :license "https://creativecommons.org/licenses/by/4.0/")
(set-info :category "random")
(set-info :status unknown)

(declare-fun I () String)
(declare-fun H () String)
(declare-fun B () String)
(declare-fun A () String)
(declare-fun D () String)
(assert (= (str.++  "fadaefebfa" D "d" B "fcabcfdacebbbe")  (str.++  "fadaefeb" I "cb" A "fabaabfcabcfdacebbbe") ))
(assert (= (str.++  "dcbdbeedfefbdfeeeebacafaafccf" H "bafadef")  (str.++  "dcbdbeedfefbdfeeeebacafaafccf" H "bafadef") ))
(assert (= (str.++  "bafebdacececa" I "fbdafcafcebaacaebeeacfd")  (str.++  "bafebdacececafafdfbdafcafcebaacaebeeacfd" "") ))
(assert (<=(* (str.len A) 17) 340))
(assert (>=(* (str.len I) 14) 14))
(assert (<=(* (str.len I) 18) 306))
(assert (<=(* (str.len D) 8) 168))
(check-sat)

(exit)
